7 3 25 1 2 1 7 3 2 1 7 1 2 1 7 1 11 1 14 3 
12 3 9 1 12 3 9 1 12 1 9 1 5 1 9 1 2 3
19 1 19 1 23 1 21 1 19 1 19 1 18 1 18 1 21 1 24 1 18 1 21 1 19 1 19 1 
23 1 21 1 19 1 19 1 18 1 18 1
21 1 24 1 18 1 19 1 19 1 18 1 16 1 18 1 19 1 19 1 23 1 21 1 23 1 24 1 24 1
14 5 16 5 12 3 12 3 11 3 11 3 9 3 9 3 7 1 6 1 4 1 6 1 7 3 9 3 11 3
14 5 16 5 14 1 12 1 12 1 12 1 12 1 11 1 11 1 11 1 11 1 9 1 9 1 9 1 7 1 6 1 4 1 6 1 7 3 9 3 11 3
7 3 25 1 2 1 7 3 2 1 7 1 2 1 7 1 11 1 14 3 
12 3 9 1 12 3 9 1 12 1 9 1 5 1 9 1 2 3
19 1 19 1 23 1 21 1 19 1 19 1 18 1 18 1 21 1 24 1 18 1 21 1 19 1 19 1 
23 1 21 1 19 1 19 1 18 1 18 1
21 1 24 1 18 1 19 1 19 1 18 1 16 1 18 1 19 1 19 1 23 1 21 1 23 1 24 1 24 1
14 5 16 5 12 3 12 3 11 3 11 3 9 3 9 3 7 1 6 1 4 1 6 1 7 3 9 3 11 3
14 5 16 5 14 1 12 1 12 1 12 1 12 1 11 1 11 1 11 1 11 1 9 1 9 1 9 1 7 1 6 1 4 1 6 1 7 3 9 3 11 3